0,1,2,3,4,4,4,4,4,5,6,6,7,7,7,7,8,8,8,8,9,10,10,11,11,12,12,12,12,12,13,13,13,13,14,14,15,16,17,17,18,19,19,19,20,20,20,20,21,21,22,23,24,24,25,27,28,29,31,32,34,35,35,36,37,37,37,38,38,38,39,40,40,41,41,41,41,42,42,42,42,43,43,44,46,47,50,51,52,53,53,54,55,55,56,57,57,58,60,61,62,63,63,65,67,71,71,72,75,76,77,79,81,83,84,84,84,87,87,88,90,91,91,92,94,95,96,97,98,98,99,99,100,103,106,107,107,107,108,108,109,111,111,112,114,114,114,114,115,116,117,118,119,121,122,123,124,124,125,125,127,130,131,132,137,139,140,142,142,142,144,145,146,146,150,151,153,153,153,154,155,157,158,158,158,158,159,159,163,165,166,167,167,167,168,168,168,171,173,174,175,176,177,178,178,179,181,182,183,187,188,188,188,188,190,190